c 
c MolecularSimulation 0.9.3
c Simulation written: Jan 13 2012 -- 15:17:57
c Test: Distribution
c Input: ./data/testCNF/SWEEP_R10_K3_N20_M192_S000.cnf
c 
s UNSATISFIABLE
v 0
c algorithmTime:  308
c solutionMemory: 0
c mixCount:       573
c extractCount:   0
c appendCount:    5151512
c splitCount:     573
c spliceCount:    2352542
c purifyCount:    191
c 
